\ SCIP STATISTICS
\   Problem name     : estein5_data1.zpl
\   Variables        : 132 (18 binary, 0 integer, 0 implicit integer, 114 continuous)
\   Constraints      : 211
\   Obj. scale       : 1
\   Obj. offset      : 0
Minimize
 Obj: +1 x60 +1 x61 +1 x62 +1 x63 +1 x64 +1 x65 +1 x66 +1 x67 +1 x68 +1 x69 +1 x70 +1 x71 +1 x72 +1 x73
      +1 x74 +1 x75 +1 x76 +1 x77
Subject to
 e0_1: +1 x6 -1 x60 +0.493351 x78 = +0.493351
 e1_1: +1 x9 -1 x61 +0.493351 x79 = +0.493351
 e2_1: +1 x12 -1 x62 +0.493351 x80 = +0.493351
 e3_1: +1 x15 -1 x63 +0.493351 x81 = +0.493351
 e4_1: +1 x18 -1 x64 +0.493351 x82 = +0.493351
 e5_1: +1 x21 -1 x65 +0.493351 x83 = +0.493351
 e6_1: +1 x24 -1 x66 +0.493351 x84 = +0.493351
 e7_1: +1 x27 -1 x67 +0.493351 x85 = +0.493351
 e8_1: +1 x30 -1 x68 +0.493351 x86 = +0.493351
 e9_1: +1 x33 -1 x69 +0.493351 x87 = +0.493351
 e10_1: +1 x36 -1 x70 +0.493351 x88 = +0.493351
 e11_1: +1 x39 -1 x71 +0.493351 x89 = +0.493351
 e12_1: +1 x42 -1 x72 +0.493351 x90 = +0.493351
 e13_1: +1 x45 -1 x73 +0.493351 x91 = +0.493351
 e14_1: +1 x48 -1 x74 +0.493351 x92 = +0.493351
 e15_1: +1 x51 -1 x75 +0.493351 x93 = +0.493351
 e16_1: +1 x54 -1 x76 +0.493351 x94 = +0.493351
 e17_1: +1 x57 -1 x77 +0.493351 x95 = +0.493351
 e18_1: +1 x0 +1 x7 = +0.818389
 e19_1: +1 x1 +1 x8 = +0.492977
 e20_1: +1 x2 +1 x10 = +0.818389
 e21_1: +1 x3 +1 x11 = +0.492977
 e22_1: +1 x4 +1 x13 = +0.818389
 e23_1: +1 x5 +1 x14 = +0.492977
 e24_1: +1 x0 +1 x16 = +0.406
 e25_1: +1 x1 +1 x17 = +0.646402
 e26_1: +1 x2 +1 x19 = +0.406
 e27_1: +1 x3 +1 x20 = +0.646402
 e28_1: +1 x4 +1 x22 = +0.406
 e29_1: +1 x5 +1 x23 = +0.646402
 e30_1: +1 x0 +1 x25 = +0.667312
 e31_1: +1 x1 +1 x26 = +0.300798
 e32_1: +1 x2 +1 x28 = +0.667312
 e33_1: +1 x3 +1 x29 = +0.300798
 e34_1: +1 x4 +1 x31 = +0.667312
 e35_1: +1 x5 +1 x32 = +0.300798
 e36_1: +1 x0 +1 x34 = +0.328386
 e37_1: +1 x1 +1 x35 = +0.435608
 e38_1: +1 x2 +1 x37 = +0.328386
 e39_1: +1 x3 +1 x38 = +0.435608
 e40_1: +1 x4 +1 x40 = +0.328386
 e41_1: +1 x5 +1 x41 = +0.435608
 e42_1: +1 x0 +1 x43 = +0.707921
 e43_1: +1 x1 +1 x44 = +0.749626
 e44_1: +1 x2 +1 x46 = +0.707921
 e45_1: +1 x3 +1 x47 = +0.749626
 e46_1: +1 x4 +1 x49 = +0.707921
 e47_1: +1 x5 +1 x50 = +0.749626
 e48_1: -1 x0 +1 x2 +1 x52 = +0
 e49_1: -1 x1 +1 x3 +1 x53 = +0
 e50_1: -1 x0 +1 x4 +1 x55 = +0
 e51_1: -1 x1 +1 x5 +1 x56 = +0
 e52_1: -1 x2 +1 x4 +1 x58 = +0
 e53_1: -1 x3 +1 x5 +1 x59 = +0
 e54_1: +1 x78 +1 x79 +1 x80 = +1
 e55_1: +1 x81 +1 x82 +1 x83 = +1
 e56_1: +1 x84 +1 x85 +1 x86 = +1
 e57_1: +1 x87 +1 x88 +1 x89 = +1
 e58_1: +1 x90 +1 x91 +1 x92 = +1
 e59_1: +1 x93 = +1
 e60_1: +1 x94 +1 x95 = +1
 e61_1: +1 x78 +1 x96 = +1
 e62_1: +1 x79 +1 x97 = +1
 e63_1: +1 x80 +1 x98 = +1
 e64_1: +1 x81 +1 x99 = +1
 e65_1: +1 x82 +1 x100 = +1
 e66_1: +1 x83 +1 x101 = +1
 e67_1: +1 x84 +1 x102 = +1
 e68_1: +1 x85 +1 x103 = +1
 e69_1: +1 x86 +1 x104 = +1
 e70_1: +1 x87 +1 x105 = +1
 e71_1: +1 x88 +1 x106 = +1
 e72_1: +1 x89 +1 x107 = +1
 e73_1: +1 x90 +1 x108 = +1
 e74_1: +1 x91 +1 x109 = +1
 e75_1: +1 x92 +1 x110 = +1
 e76_1: +1 x93 +1 x111 = +1
 e77_1: +1 x94 +1 x112 = +1
 e78_1: +1 x95 +1 x113 = +1
 e79_1: +1 x60 -0.493351 x78 +1 x114 = +0
 e80_1: +1 x61 -0.493351 x79 +1 x115 = +0
 e81_1: +1 x62 -0.493351 x80 +1 x116 = +0
 e82_1: +1 x63 -0.493351 x81 +1 x117 = +0
 e83_1: +1 x64 -0.493351 x82 +1 x118 = +0
 e84_1: +1 x65 -0.493351 x83 +1 x119 = +0
 e85_1: +1 x66 -0.493351 x84 +1 x120 = +0
 e86_1: +1 x67 -0.493351 x85 +1 x121 = +0
 e87_1: +1 x68 -0.493351 x86 +1 x122 = +0
 e88_1: +1 x69 -0.493351 x87 +1 x123 = +0
 e89_1: +1 x70 -0.493351 x88 +1 x124 = +0
 e90_1: +1 x71 -0.493351 x89 +1 x125 = +0
 e91_1: +1 x72 -0.493351 x90 +1 x126 = +0
 e92_1: +1 x73 -0.493351 x91 +1 x127 = +0
 e93_1: +1 x74 -0.493351 x92 +1 x128 = +0
 e94_1: +1 x75 -0.493351 x93 +1 x129 = +0
 e95_1: +1 x76 -0.493351 x94 +1 x130 = +0
 e96_1: +1 x77 -0.493351 x95 +1 x131 = +0
 positive0_1: +1 x0 >= +0
 positive1_1: +1 x1 >= +0
 positive2_1: +1 x2 >= +0
 positive3_1: +1 x3 >= +0
 positive4_1: +1 x4 >= +0
 positive5_1: +1 x5 >= +0
 positive6_1: +1 x6 >= +0
 cone6_1: + [ +1 x6^2 -1 x7^2 -1 x8^2 ] >= +0
 positive7_1: +1 x9 >= +0
 cone7_1: + [ +1 x9^2 -1 x10^2 -1 x11^2 ] >= +0
 positive8_1: +1 x12 >= +0
 cone8_1: + [ +1 x12^2 -1 x13^2 -1 x14^2 ] >= +0
 positive9_1: +1 x15 >= +0
 cone9_1: + [ +1 x15^2 -1 x16^2 -1 x17^2 ] >= +0
 positive10_1: +1 x18 >= +0
 cone10_1: + [ +1 x18^2 -1 x19^2 -1 x20^2 ] >= +0
 positive11_1: +1 x21 >= +0
 cone11_1: + [ +1 x21^2 -1 x22^2 -1 x23^2 ] >= +0
 positive12_1: +1 x24 >= +0
 cone12_1: + [ +1 x24^2 -1 x25^2 -1 x26^2 ] >= +0
 positive13_1: +1 x27 >= +0
 cone13_1: + [ +1 x27^2 -1 x28^2 -1 x29^2 ] >= +0
 positive14_1: +1 x30 >= +0
 cone14_1: + [ +1 x30^2 -1 x31^2 -1 x32^2 ] >= +0
 positive15_1: +1 x33 >= +0
 cone15_1: + [ +1 x33^2 -1 x34^2 -1 x35^2 ] >= +0
 positive16_1: +1 x36 >= +0
 cone16_1: + [ +1 x36^2 -1 x37^2 -1 x38^2 ] >= +0
 positive17_1: +1 x39 >= +0
 cone17_1: + [ +1 x39^2 -1 x40^2 -1 x41^2 ] >= +0
 positive18_1: +1 x42 >= +0
 cone18_1: + [ +1 x42^2 -1 x43^2 -1 x44^2 ] >= +0
 positive19_1: +1 x45 >= +0
 cone19_1: + [ +1 x45^2 -1 x46^2 -1 x47^2 ] >= +0
 positive20_1: +1 x48 >= +0
 cone20_1: + [ +1 x48^2 -1 x49^2 -1 x50^2 ] >= +0
 positive21_1: +1 x51 >= +0
 cone21_1: + [ +1 x51^2 -1 x52^2 -1 x53^2 ] >= +0
 positive22_1: +1 x54 >= +0
 cone22_1: + [ +1 x54^2 -1 x55^2 -1 x56^2 ] >= +0
 positive23_1: +1 x57 >= +0
 cone23_1: + [ +1 x57^2 -1 x58^2 -1 x59^2 ] >= +0
 positive24_1: +1 x60 >= +0
 positive25_1: +1 x61 >= +0
 positive26_1: +1 x62 >= +0
 positive27_1: +1 x63 >= +0
 positive28_1: +1 x64 >= +0
 positive29_1: +1 x65 >= +0
 positive30_1: +1 x66 >= +0
 positive31_1: +1 x67 >= +0
 positive32_1: +1 x68 >= +0
 positive33_1: +1 x69 >= +0
 positive34_1: +1 x70 >= +0
 positive35_1: +1 x71 >= +0
 positive36_1: +1 x72 >= +0
 positive37_1: +1 x73 >= +0
 positive38_1: +1 x74 >= +0
 positive39_1: +1 x75 >= +0
 positive40_1: +1 x76 >= +0
 positive41_1: +1 x77 >= +0
 positive42_1: +1 x78 >= +0
 positive43_1: +1 x79 >= +0
 positive44_1: +1 x80 >= +0
 positive45_1: +1 x81 >= +0
 positive46_1: +1 x82 >= +0
 positive47_1: +1 x83 >= +0
 positive48_1: +1 x84 >= +0
 positive49_1: +1 x85 >= +0
 positive50_1: +1 x86 >= +0
 positive51_1: +1 x87 >= +0
 positive52_1: +1 x88 >= +0
 positive53_1: +1 x89 >= +0
 positive54_1: +1 x90 >= +0
 positive55_1: +1 x91 >= +0
 positive56_1: +1 x92 >= +0
 positive57_1: +1 x93 >= +0
 positive58_1: +1 x94 >= +0
 positive59_1: +1 x95 >= +0
 positive60_1: +1 x96 >= +0
 positive61_1: +1 x97 >= +0
 positive62_1: +1 x98 >= +0
 positive63_1: +1 x99 >= +0
 positive64_1: +1 x100 >= +0
 positive65_1: +1 x101 >= +0
 positive66_1: +1 x102 >= +0
 positive67_1: +1 x103 >= +0
 positive68_1: +1 x104 >= +0
 positive69_1: +1 x105 >= +0
 positive70_1: +1 x106 >= +0
 positive71_1: +1 x107 >= +0
 positive72_1: +1 x108 >= +0
 positive73_1: +1 x109 >= +0
 positive74_1: +1 x110 >= +0
 positive75_1: +1 x111 >= +0
 positive76_1: +1 x112 >= +0
 positive77_1: +1 x113 >= +0
 positive78_1: +1 x114 >= +0
 positive79_1: +1 x115 >= +0
 positive80_1: +1 x116 >= +0
 positive81_1: +1 x117 >= +0
 positive82_1: +1 x118 >= +0
 positive83_1: +1 x119 >= +0
 positive84_1: +1 x120 >= +0
 positive85_1: +1 x121 >= +0
 positive86_1: +1 x122 >= +0
 positive87_1: +1 x123 >= +0
 positive88_1: +1 x124 >= +0
 positive89_1: +1 x125 >= +0
 positive90_1: +1 x126 >= +0
 positive91_1: +1 x127 >= +0
 positive92_1: +1 x128 >= +0
 positive93_1: +1 x129 >= +0
 positive94_1: +1 x130 >= +0
 positive95_1: +1 x131 >= +0
Bounds
 0 <= x78 <= 1
 0 <= x79 <= 1
 0 <= x80 <= 1
 0 <= x81 <= 1
 0 <= x82 <= 1
 0 <= x83 <= 1
 0 <= x84 <= 1
 0 <= x85 <= 1
 0 <= x86 <= 1
 0 <= x87 <= 1
 0 <= x88 <= 1
 0 <= x89 <= 1
 0 <= x90 <= 1
 0 <= x91 <= 1
 0 <= x92 <= 1
 0 <= x93 <= 1
 0 <= x94 <= 1
 0 <= x95 <= 1
 x19 free
 x20 free
 x22 free
 x23 free
 x25 free
 x26 free
 x28 free
 x29 free
 x31 free
 x32 free
 x34 free
 x35 free
 x37 free
 x38 free
 x40 free
 x41 free
 x43 free
 x44 free
 x46 free
 x47 free
 x49 free
 x50 free
 x52 free
 x53 free
 x55 free
 x56 free
 x58 free
 x59 free
 x7 free
 x8 free
 x10 free
 x11 free
 x13 free
 x14 free
 x16 free
 x17 free
Binaries
 x78 x79 x80 x81 x82 x83 x84 x85 x86 x87 x88 x89 x90 x91 x92 x93 x94 x95
End
